c t wmc
c file mc2023_track2_132.cnf
p cnf 90 252
10 -55 -15 0
47 -72 -32 0
84 63 66 0
64 -60 -84 0
-42 49 25 0
-90 -18 17 0
-32 37 -85 0
21 -54 26 0
54 6 -89 0
-12 17 81 0
-24 46 40 0
66 -40 41 0
31 -83 -27 0
41 34 -8 0
-42 -70 28 0
28 69 -58 0
6 86 -55 0
7 84 4 0
-77 72 51 0
62 -90 19 0
22 -53 55 0
85 3 -55 0
-57 -67 37 0
78 -56 45 0
67 1 -72 0
2 56 -34 0
-87 -80 63 0
-57 -24 -43 0
60 28 49 0
-14 -38 40 0
-41 -85 40 0
84 7 45 0
37 -12 49 0
-61 -81 -7 0
30 -44 17 0
-21 27 19 0
22 37 55 0
-36 69 70 0
90 -64 -82 0
-8 -27 -31 0
-68 -65 72 0
-77 80 19 0
-75 22 -20 0
66 30 -1 0
-45 -25 28 0
-68 -67 -72 0
28 -82 68 0
58 27 -75 0
-69 -15 -90 0
48 7 30 0
64 44 62 0
-50 61 -52 0
70 17 -50 0
52 -74 -31 0
-50 1 83 0
-14 72 18 0
83 2 -35 0
-34 48 -76 0
66 -75 86 0
82 -11 18 0
-67 36 5 0
22 -46 -9 0
-46 -6 58 0
-26 -40 1 0
25 74 57 0
-86 1 29 0
-49 9 -53 0
49 40 62 0
30 -23 -90 0
44 68 89 0
-70 -76 34 0
51 -81 -26 0
37 32 -77 0
66 -74 3 0
84 -54 78 0
-49 7 61 0
-15 7 -4 0
-43 59 -51 0
-60 -23 -49 0
-1 -12 -83 0
-31 -18 -76 0
-9 -90 -79 0
-15 66 28 0
51 79 14 0
-14 -10 9 0
31 4 -27 0
-25 -27 -44 0
24 7 57 0
-39 -64 74 0
-26 -75 -21 0
30 -64 84 0
25 -59 38 0
68 87 -10 0
-70 1 39 0
1 88 -4 0
-45 -27 -54 0
59 -50 16 0
-76 41 21 0
36 -60 72 0
-63 4 -27 0
-70 89 -50 0
75 26 28 0
-47 -49 -55 0
6 -89 20 0
-75 -77 51 0
-50 57 75 0
-37 -11 28 0
8 -22 -83 0
32 59 -81 0
-80 62 -21 0
49 -55 17 0
40 -50 -28 0
36 -13 -42 0
6 -81 -7 0
-80 76 63 0
11 -50 -14 0
-61 -48 -46 0
-59 -77 -61 0
39 31 -35 0
-2 25 -20 0
-67 -29 88 0
5 -60 -54 0
70 -71 -21 0
23 -24 -51 0
51 -69 -79 0
-24 -34 -79 0
17 44 -82 0
-87 19 30 0
4 58 -69 0
-26 -55 -48 0
-4 -75 21 0
51 -15 -26 0
89 -12 41 0
-53 -63 -14 0
-52 83 -78 0
-28 88 -85 0
33 26 -41 0
54 38 -72 0
-55 -9 -66 0
81 30 15 0
15 57 58 0
75 48 47 0
-8 54 4 0
36 -35 14 0
57 -29 24 0
35 41 77 0
-79 39 34 0
2 -27 -88 0
13 -58 -84 0
-75 52 18 0
-69 63 37 0
46 -5 -56 0
-82 45 -51 0
76 11 62 0
4 11 -81 0
24 -55 -84 0
-83 -30 39 0
-77 -65 37 0
32 -33 -26 0
19 -33 -29 0
-16 -78 -54 0
24 -42 -11 0
-67 -84 22 0
49 -13 4 0
45 -60 -47 0
30 -20 58 0
-54 48 -46 0
26 -77 38 0
-88 -76 -55 0
-21 9 40 0
17 83 -24 0
37 67 43 0
85 -15 67 0
-85 -44 -70 0
-10 42 47 0
10 -87 -50 0
37 74 -80 0
64 -18 16 0
52 -80 -20 0
23 27 -64 0
-12 87 42 0
-16 15 41 0
-81 72 -49 0
19 80 -46 0
-48 -68 -88 0
-25 -57 50 0
40 -85 -70 0
39 43 -17 0
-6 -5 -73 0
-31 -47 18 0
-80 -51 46 0
32 -1 -45 0
-56 -74 19 0
4 59 88 0
4 57 8 0
36 22 -45 0
-81 13 46 0
18 -37 34 0
-90 -29 63 0
-65 38 78 0
-7 22 -11 0
33 -22 -60 0
-3 -9 26 0
57 42 -58 0
-75 -74 66 0
-6 -82 -50 0
18 -64 48 0
-6 13 -25 0
55 -42 -48 0
-53 3 -62 0
54 36 -81 0
-14 28 -32 0
-53 34 -11 0
90 -78 62 0
-88 -68 -27 0
1 76 39 0
46 -88 38 0
-14 -16 -70 0
33 -78 24 0
54 3 -25 0
-49 -33 7 0
79 -90 23 0
36 6 86 0
-57 -29 -67 0
-58 -43 51 0
-3 58 66 0
55 -4 -78 0
-80 5 -89 0
4 -58 40 0
41 -7 1 0
12 40 2 0
23 89 -12 0
-35 19 -22 0
66 19 15 0
-63 -27 -12 0
-59 18 -7 0
36 86 33 0
-82 45 -15 0
-25 65 2 0
55 69 34 0
44 -21 -60 0
-15 -90 60 0
58 49 69 0
-78 -62 -10 0
74 29 16 0
-39 -43 -60 0
-67 77 62 0
-24 11 -19 0
-48 -19 -55 0
55 -83 -46 0
32 -61 46 0
-52 54 -71 0
c p weight 65 0.67859715 0
c p weight -65 0.32140285 0
c p weight 83 0.54367038 0
c p weight -83 0.45632962 0
c p weight 1 1 0
c p weight -1 1 0
c p weight 2 1 0
c p weight -2 1 0
c p weight 3 1 0
c p weight -3 1 0
c p weight 4 1 0
c p weight -4 1 0
c p weight 5 1 0
c p weight -5 1 0
c p weight 6 1 0
c p weight -6 1 0
c p weight 7 1 0
c p weight -7 1 0
c p weight 8 1 0
c p weight -8 1 0
c p weight 9 1 0
c p weight -9 1 0
c p weight 10 1 0
c p weight -10 1 0
c p weight 11 1 0
c p weight -11 1 0
c p weight 12 1 0
c p weight -12 1 0
c p weight 13 1 0
c p weight -13 1 0
c p weight 14 1 0
c p weight -14 1 0
c p weight 15 1 0
c p weight -15 1 0
c p weight 16 1 0
c p weight -16 1 0
c p weight 17 1 0
c p weight -17 1 0
c p weight 18 1 0
c p weight -18 1 0
c p weight 19 1 0
c p weight -19 1 0
c p weight 20 1 0
c p weight -20 1 0
c p weight 21 1 0
c p weight -21 1 0
c p weight 22 1 0
c p weight -22 1 0
c p weight 23 1 0
c p weight -23 1 0
c p weight 24 1 0
c p weight -24 1 0
c p weight 25 1 0
c p weight -25 1 0
c p weight 26 1 0
c p weight -26 1 0
c p weight 27 1 0
c p weight -27 1 0
c p weight 28 1 0
c p weight -28 1 0
c p weight 29 1 0
c p weight -29 1 0
c p weight 30 1 0
c p weight -30 1 0
c p weight 31 1 0
c p weight -31 1 0
c p weight 32 1 0
c p weight -32 1 0
c p weight 33 1 0
c p weight -33 1 0
c p weight 34 1 0
c p weight -34 1 0
c p weight 35 1 0
c p weight -35 1 0
c p weight 36 1 0
c p weight -36 1 0
c p weight 37 1 0
c p weight -37 1 0
c p weight 38 1 0
c p weight -38 1 0
c p weight 39 1 0
c p weight -39 1 0
c p weight 40 1 0
c p weight -40 1 0
c p weight 41 1 0
c p weight -41 1 0
c p weight 42 1 0
c p weight -42 1 0
c p weight 43 1 0
c p weight -43 1 0
c p weight 44 1 0
c p weight -44 1 0
c p weight 45 1 0
c p weight -45 1 0
c p weight 46 1 0
c p weight -46 1 0
c p weight 47 1 0
c p weight -47 1 0
c p weight 48 1 0
c p weight -48 1 0
c p weight 49 1 0
c p weight -49 1 0
c p weight 50 1 0
c p weight -50 1 0
c p weight 51 1 0
c p weight -51 1 0
c p weight 52 1 0
c p weight -52 1 0
c p weight 53 1 0
c p weight -53 1 0
c p weight 54 1 0
c p weight -54 1 0
c p weight 55 1 0
c p weight -55 1 0
c p weight 56 1 0
c p weight -56 1 0
c p weight 57 1 0
c p weight -57 1 0
c p weight 58 1 0
c p weight -58 1 0
c p weight 59 1 0
c p weight -59 1 0
c p weight 60 1 0
c p weight -60 1 0
c p weight 61 1 0
c p weight -61 1 0
c p weight 62 1 0
c p weight -62 1 0
c p weight 63 1 0
c p weight -63 1 0
c p weight 64 1 0
c p weight -64 1 0
c p weight 66 1 0
c p weight -66 1 0
c p weight 67 1 0
c p weight -67 1 0
c p weight 68 1 0
c p weight -68 1 0
c p weight 69 1 0
c p weight -69 1 0
c p weight 70 1 0
c p weight -70 1 0
c p weight 71 1 0
c p weight -71 1 0
c p weight 72 1 0
c p weight -72 1 0
c p weight 73 1 0
c p weight -73 1 0
c p weight 74 1 0
c p weight -74 1 0
c p weight 75 1 0
c p weight -75 1 0
c p weight 76 1 0
c p weight -76 1 0
c p weight 77 1 0
c p weight -77 1 0
c p weight 78 1 0
c p weight -78 1 0
c p weight 79 1 0
c p weight -79 1 0
c p weight 80 1 0
c p weight -80 1 0
c p weight 81 1 0
c p weight -81 1 0
c p weight 82 1 0
c p weight -82 1 0
c p weight 84 1 0
c p weight -84 1 0
c p weight 85 1 0
c p weight -85 1 0
c p weight 86 1 0
c p weight -86 1 0
c p weight 87 1 0
c p weight -87 1 0
c p weight 88 1 0
c p weight -88 1 0
c p weight 89 1 0
c p weight -89 1 0
c p weight 90 1 0
c p weight -90 1 0
